<number of tasks>
58

<cycle time>
60

<task times>
1 10
2 53
3 41
4 36
5 35
6 17
7 34
8 23
9 14
10 52
11 33
12 34
13 12
14 52
15 12
16 33
17 44
18 7
19 15
20 13
21 29
22 37
23 43
24 23
25 24
26 9
27 16
28 12
29 26
30 22
31 51
32 47
33 34
34 23
35 12
36 52
37 12
38 33
39 44
40 7
41 15
42 13
43 29
44 37
45 43
46 23
47 24
48 9
49 16
50 12
51 26
52 12
53 52
54 12
55 33
56 44
57 7
58 15

<precedence relations>
1,9
2,25
3,21
3,22
4,10
5,36
6,23
6,24
7,43
8,44
9,11
11,13
11,14
11,15
12,17
13,17
14,17
15,17
16,18
17,20
18,19
19,23
20,21
20,25
21,26
21,44
22,27
23,31
24,31
25,38
26,29
27,30
28,32
28,33
29,31
30,34
31,36
32,45
33,35
34,36
35,43
36,37
36,38
37,39
37,40
37,41
38,52
39,43
40,43
41,42
42,43
43,45
44,45
45,46
45,48
45,49
46,47
46,50
47,51
48,55
49,58
50,58
51,52
52,53
53,54
54,55
54,56
55,57
56,57
57,58

<setup times forward>
1,2:10
1,3:3
1,4:5
1,5:3
1,7:9
1,8:8
1,9:8
1,10:7
1,12:2
1,18:3
1,19:3
1,22:4
1,24:4
1,28:8
1,30:5
1,32:6
1,33:9
1,34:3
1,35:2
2,1:10
2,3:13
2,4:15
2,5:7
2,6:10
2,7:1
2,8:18
2,9:18
2,10:3
2,11:18
2,12:12
2,13:12
2,14:7
2,15:12
2,16:10
2,17:3
2,18:7
2,19:13
2,20:3
2,21:15
2,22:6
2,23:10
2,24:6
2,25:1
2,26:15
2,27:10
2,28:18
2,29:1
2,30:15
2,31:9
2,32:16
2,33:1
2,34:7
2,35:8
2,36:12
2,37:16
2,39:8
2,41:12
2,42:12
2,43:12
2,44:18
2,45:16
2,46:15
2,47:15
2,48:8
2,49:16
2,50:8
2,51:8
3,1:3
3,2:13
3,4:2
3,5:6
3,6:3
3,7:12
3,8:5
3,9:5
3,10:10
3,11:5
3,12:1
3,13:1
3,14:6
3,15:1
3,16:3
3,17:10
3,18:6
3,20:10
3,21:2
3,22:7
3,23:3
3,24:7
3,25:12
3,28:5
3,32:3
3,33:12
3,35:5
4,1:5
4,2:15
4,3:2
4,5:8
4,6:5
4,7:14
4,8:3
4,9:3
4,10:12
4,11:3
4,12:3
4,13:3
4,14:8
4,15:3
4,16:5
4,17:12
4,18:8
4,19:2
4,20:12
4,22:9
4,23:5
4,24:9
4,25:14
4,27:5
4,28:3
4,29:14
4,31:6
4,32:1
4,33:14
4,34:8
4,35:7
4,36:3
4,37:1
4,39:7
4,40:15
4,41:3
4,42:3
4,43:3
4,44:3
4,45:1
4,48:7
4,49:1
4,50:7
4,51:7
4,52:7
4,53:8
4,54:13
4,55:16
4,56:13
4,57:16
4,58:16
5,1:3
5,2:7
5,3:6
5,4:8
5,6:3
5,7:6
5,8:11
5,9:11
5,10:4
5,11:11
5,12:5
5,13:5
5,15:5
5,16:3
5,17:4
5,19:6
5,20:4
5,21:8
5,22:1
5,23:3
5,24:1
5,25:6
5,26:8
5,27:3
5,28:11
5,29:6
5,30:8
5,31:2
5,32:9
5,33:6
5,35:1
5,36:5
5,44:11
6,2:10
6,3:3
6,4:5
6,5:3
6,7:9
6,8:8
6,9:8
6,10:7
6,11:8
6,12:2
6,13:2
6,14:3
6,15:2
6,17:7
6,18:3
6,19:3
6,20:7
6,21:5
6,22:4
6,24:4
6,25:9
6,26:5
6,28:8
6,29:9
6,30:5
6,32:6
6,33:9
6,34:3
6,35:2
6,44:8
7,1:9
7,2:1
7,3:12
7,4:14
7,5:6
7,6:9
7,8:17
7,9:17
7,10:2
7,11:17
7,12:11
7,13:11
7,14:6
7,15:11
7,16:9
7,17:2
7,18:6
7,19:12
7,20:2
7,21:14
7,22:5
7,23:9
7,24:5
7,26:14
7,27:9
7,28:17
7,30:14
7,31:8
7,32:15
7,34:6
7,35:7
7,36:11
7,37:15
7,38:14
7,39:7
7,40:1
7,41:11
7,42:11
7,43:11
7,44:17
8,1:8
8,2:18
8,3:5
8,4:3
8,5:11
8,6:8
8,7:17
8,10:15
8,12:6
8,13:6
8,14:11
8,15:6
8,16:8
8,17:15
8,18:11
8,19:5
8,20:15
8,21:3
8,22:12
8,23:8
8,24:12
8,25:17
8,26:3
8,27:8
8,29:17
8,30:3
8,31:9
8,32:2
8,33:17
8,34:11
8,35:10
8,36:6
8,37:2
8,38:3
8,39:10
8,40:18
8,41:6
8,42:6
8,43:6
9,2:18
9,3:5
9,4:3
9,5:11
9,6:8
9,7:17
9,10:15
9,12:6
9,16:8
9,18:11
9,19:5
9,22:12
9,23:8
9,24:12
9,27:8
9,30:3
9,32:2
9,33:17
9,34:11
9,35:10
10,1:7
10,2:3
10,3:10
10,5:4
10,6:7
10,7:2
10,8:15
10,9:15
10,11:15
10,12:9
10,13:9
10,14:4
10,15:9
10,16:7
10,18:4
10,19:10
10,21:12
10,22:3
10,23:7
10,24:3
10,25:2
10,26:12
10,27:7
10,28:15
10,29:2
10,30:12
10,31:6
10,32:13
10,33:2
10,34:4
10,35:5
10,36:9
10,37:13
10,38:12
10,39:5
10,40:3
10,41:9
10,42:9
10,43:9
10,44:15
10,45:13
10,46:12
10,47:12
10,48:5
10,49:13
10,50:5
10,51:5
10,52:5
10,53:4
10,54:1
10,55:4
10,56:1
10,57:4
10,58:4
11,2:18
11,3:5
11,4:3
11,5:11
11,6:8
11,7:17
11,10:15
11,12:6
11,13:6
11,14:11
11,15:6
11,16:8
11,18:11
11,19:5
11,22:12
11,23:8
11,24:12
11,27:8
11,30:3
11,32:2
11,33:17
11,34:11
11,35:10
12,1:2
12,2:12
12,3:1
12,4:3
12,5:5
12,6:2
12,7:11
12,8:6
12,9:6
12,10:9
12,11:6
12,14:5
12,16:2
12,17:9
12,18:5
12,19:1
12,22:6
12,23:2
12,24:6
12,27:2
12,28:6
12,30:3
12,32:4
12,33:11
12,34:5
12,35:4
13,2:12
13,3:1
13,4:3
13,5:5
13,6:2
13,7:11
13,8:6
13,10:9
13,14:5
13,16:2
13,17:9
13,18:5
13,19:1
13,22:6
13,23:2
13,24:6
13,27:2
13,28:6
13,30:3
13,32:4
13,33:11
13,34:5
13,35:4
14,2:7
14,3:6
14,4:8
14,6:3
14,7:6
14,8:11
14,10:4
14,12:5
14,13:5
14,15:5
14,16:3
14,17:4
14,19:6
14,22:1
14,23:3
14,24:1
14,27:3
14,28:11
14,30:8
14,32:9
14,33:6
14,35:1
15,2:12
15,3:1
15,4:3
15,5:5
15,6:2
15,7:11
15,8:6
15,10:9
15,14:5
15,16:2
15,17:9
15,18:5
15,19:1
15,22:6
15,23:2
15,24:6
15,27:2
15,28:6
15,30:3
15,32:4
15,33:11
15,34:5
15,35:4
16,2:10
16,3:3
16,4:5
16,5:3
16,7:9
16,8:8
16,9:8
16,10:7
16,11:8
16,12:2
16,13:2
16,14:3
16,15:2
16,17:7
16,18:3
16,20:7
16,21:5
16,22:4
16,24:4
16,25:9
16,26:5
16,28:8
16,29:9
16,30:5
16,32:6
16,33:9
16,34:3
16,35:2
16,44:8
17,2:3
17,3:10
17,4:12
17,5:4
17,6:7
17,7:2
17,8:15
17,16:7
17,18:4
17,19:10
17,22:3
17,23:7
17,24:3
17,27:7
17,28:15
17,30:12
17,32:13
17,33:2
17,34:4
17,35:5
18,1:3
18,2:7
18,3:6
18,4:8
18,6:3
18,7:6
18,8:11
18,9:11
18,10:4
18,11:11
18,12:5
18,13:5
18,15:5
18,17:4
18,19:6
18,20:4
18,21:8
18,22:1
18,24:1
18,25:6
18,26:8
18,27:3
18,28:11
18,29:6
18,30:8
18,32:9
18,33:6
18,35:1
18,44:11
19,1:3
19,2:13
19,4:2
19,5:6
19,6:3
19,7:12
19,8:5
19,9:5
19,10:10
19,11:5
19,12:1
19,13:1
19,14:6
19,15:1
19,17:10
19,20:10
19,21:2
19,22:7
19,23:3
19,24:7
19,25:12
19,26:2
19,27:3
19,28:5
19,29:12
19,30:2
19,32:3
19,33:12
19,34:6
19,35:5
19,44:5
20,2:3
20,3:10
20,4:12
20,5:4
20,6:7
20,7:2
20,8:15
20,16:7
20,18:4
20,19:10
20,21:12
20,22:3
20,23:7
20,24:3
20,25:2
20,27:7
20,28:15
20,30:12
20,32:13
20,33:2
20,34:4
20,35:5
21,2:15
21,5:8
21,6:5
21,7:14
21,8:3
21,10:12
21,16:5
21,18:8
21,19:2
21,22:9
21,23:5
21,24:9
21,25:14
21,27:5
21,28:3
21,32:1
21,33:14
21,34:8
21,35:7
21,44:3
22,1:4
22,2:6
22,4:9
22,5:1
22,6:4
22,7:5
22,8:12
22,9:12
22,10:3
22,11:12
22,12:6
22,13:6
22,14:1
22,15:6
22,16:4
22,17:3
22,18:1
22,19:7
22,20:3
22,21:9
22,23:4
22,25:5
22,26:9
22,27:4
22,28:12
22,29:5
22,31:3
22,32:10
22,33:5
22,35:2
22,44:12
23,2:10
23,3:3
23,4:5
23,5:3
23,7:9
23,8:8
23,9:8
23,10:7
23,11:8
23,12:2
23,13:2
23,14:3
23,15:2
23,17:7
23,20:7
23,21:5
23,22:4
23,24:4
23,25:9
23,26:5
23,28:8
23,29:9
23,30:5
23,31:1
23,32:6
23,33:9
23,34:3
23,35:2
23,44:8
24,1:4
24,2:6
24,3:7
24,4:9
24,5:1
24,7:5
24,8:12
24,9:12
24,10:3
24,11:12
24,12:6
24,13:6
24,14:1
24,15:6
24,16:4
24,17:3
24,18:1
24,19:7
24,20:3
24,21:9
24,23:4
24,25:5
24,26:9
24,27:4
24,28:12
24,29:5
24,30:9
24,31:3
24,32:10
24,33:5
24,34:1
24,35:2
24,44:12
25,3:12
25,4:14
25,5:6
25,6:9
25,8:17
25,10:2
25,16:9
25,18:6
25,19:12
25,21:14
25,22:5
25,23:9
25,24:5
25,26:14
25,27:9
25,28:17
25,30:14
25,31:8
25,32:15
25,34:6
25,35:7
25,36:11
25,37:15
25,38:14
25,39:7
25,40:1
25,41:11
25,42:11
25,43:11
25,44:17
25,45:15
25,46:14
25,47:14
25,48:7
25,49:15
25,50:7
25,51:7
26,2:15
26,5:8
26,6:5
26,7:14
26,8:3
26,10:12
26,16:5
26,18:8
26,19:2
26,22:9
26,23:5
26,24:9
26,25:14
26,27:5
26,28:3
26,29:14
26,32:1
26,33:14
26,34:8
26,35:7
26,44:3
27,2:10
27,4:5
27,5:3
27,7:9
27,8:8
27,9:8
27,10:7
27,11:8
27,12:2
27,13:2
27,14:3
27,15:2
27,17:7
27,18:3
27,19:3
27,20:7
27,21:5
27,24:4
27,25:9
27,26:5
27,28:8
27,29:9
27,30:5
27,31:1
27,32:6
27,33:9
27,35:2
27,44:8
28,1:8
28,2:18
28,3:5
28,4:3
28,5:11
28,6:8
28,7:17
28,10:15
28,12:6
28,13:6
28,14:11
28,15:6
28,16:8
28,17:15
28,18:11
28,19:5
28,20:15
28,21:3
28,22:12
28,23:8
28,24:12
28,25:17
28,26:3
28,27:8
28,29:17
28,30:3
28,31:9
28,32:2
28,33:17
28,34:11
28,36:6
28,37:2
28,38:3
28,39:10
28,40:18
28,41:6
28,42:6
29,2:1
29,4:14
29,5:6
29,6:9
29,8:17
29,10:2
29,16:9
29,18:6
29,19:12
29,22:5
29,23:9
29,24:5
29,27:9
29,28:17
29,30:14
29,31:8
29,32:15
29,34:6
29,35:7
29,44:17
30,1:5
30,2:15
30,5:8
30,6:5
30,7:14
30,8:3
30,9:3
30,10:12
30,11:3
30,12:3
30,13:3
30,14:8
30,15:3
30,16:5
30,17:12
30,18:8
30,19:2
30,20:12
30,23:5
30,24:9
30,25:14
30,28:3
30,29:14
30,31:6
30,32:1
30,33:14
30,34:8
30,35:7
30,44:3
31,2:9
31,4:6
31,5:2
31,7:8
31,8:9
31,10:6
31,22:3
31,25:8
31,27:1
31,28:9
31,30:6
31,32:7
31,33:8
31,34:2
31,35:1
31,36:3
31,44:9
32,1:6
32,2:16
32,3:3
32,4:1
32,5:9
32,6:6
32,7:15
32,8:2
32,9:2
32,10:13
32,11:2
32,12:4
32,13:4
32,14:9
32,15:4
32,16:6
32,17:13
32,18:9
32,19:3
32,20:13
32,21:1
32,22:10
32,23:6
32,24:10
32,25:15
32,26:1
32,27:6
32,29:15
32,30:1
32,31:7
32,33:15
32,34:9
32,35:8
32,36:4
32,38:1
32,39:8
32,40:16
32,41:4
32,42:4
32,43:4
32,44:2
33,1:9
33,2:1
33,3:12
33,4:14
33,5:6
33,6:9
33,8:17
33,9:17
33,10:2
33,11:17
33,12:11
33,13:11
33,14:6
33,15:11
33,16:9
33,17:2
33,18:6
33,19:12
33,20:2
33,21:14
33,22:5
33,23:9
33,24:5
33,26:14
33,27:9
33,30:14
33,31:8
33,32:15
33,34:6
33,35:7
33,36:11
33,37:15
33,38:14
33,39:7
33,40:1
33,41:11
33,42:11
33,44:17
34,1:3
34,2:7
34,4:8
34,6:3
34,7:6
34,8:11
34,9:11
34,10:4
34,11:11
34,12:5
34,13:5
34,15:5
34,16:3
34,17:4
34,19:6
34,20:4
34,21:8
34,23:3
34,24:1
34,25:6
34,26:8
34,28:11
34,29:6
34,31:2
34,32:9
34,33:6
34,35:1
34,36:5
34,44:11
35,1:2
35,2:8
35,3:5
35,4:7
35,5:1
35,6:2
35,7:7
35,8:10
35,9:10
35,10:5
35,11:10
35,12:4
35,13:4
35,14:1
35,15:4
35,16:2
35,17:5
35,18:1
35,19:5
35,20:5
35,21:7
35,22:2
35,23:2
35,24:2
35,25:7
35,26:7
35,27:2
35,29:7
35,30:7
35,31:1
35,32:8
35,34:1
35,36:4
35,37:8
35,38:7
35,40:8
35,41:4
35,42:4
35,43:4
35,44:10
36,2:12
36,4:3
36,7:11
36,8:6
36,10:9
36,25:11
36,28:6
36,32:4
36,33:11
36,35:4
36,37:4
36,38:3
36,44:6
37,2:16
37,4:1
37,7:15
37,8:2
37,10:13
37,25:15
37,28:2
37,33:15
37,35:8
37,38:1
37,39:8
37,40:16
37,41:4
37,44:2
38,7:14
38,8:3
38,10:12
38,28:3
38,32:1
38,33:14
38,35:7
38,37:1
38,39:7
38,40:15
38,41:3
38,42:3
38,43:3
38,44:3
38,45:1
38,48:7
38,49:1
38,50:7
38,51:7
38,52:7
39,2:8
39,4:7
39,7:7
39,8:10
39,10:5
39,25:7
39,28:10
39,32:8
39,33:7
39,38:7
39,40:8
39,41:4
39,42:4
39,43:4
39,44:10
40,4:15
40,7:1
40,8:18
40,10:3
40,25:1
40,28:18
40,32:16
40,33:1
40,35:8
40,38:15
40,39:8
40,41:12
40,42:12
40,43:12
40,44:18
41,2:12
41,4:3
41,7:11
41,8:6
41,10:9
41,25:11
41,28:6
41,32:4
41,33:11
41,35:4
41,38:3
41,39:4
41,40:12
41,44:6
42,2:12
42,4:3
42,7:11
42,8:6
42,10:9
42,25:11
42,28:6
42,32:4
42,33:11
42,35:4
42,38:3
42,39:4
42,40:12
42,44:6
43,2:12
43,4:3
43,8:6
43,10:9
43,25:11
43,32:4
43,38:3
43,44:6
43,45:4
44,2:18
44,4:3
44,5:11
44,6:8
44,7:17
44,10:15
44,16:8
44,18:11
44,19:5
44,22:12
44,23:8
44,24:12
44,25:17
44,26:3
44,27:8
44,29:17
44,30:3
44,31:9
44,32:2
44,33:17
44,34:11
44,35:10
44,36:6
44,37:2
44,38:3
44,39:10
44,40:18
44,41:6
44,42:6
44,43:6
44,45:2
45,2:16
45,4:1
45,10:13
45,25:15
45,38:1
45,46:1
45,48:8
46,2:15
46,10:12
46,25:14
46,48:7
46,49:1
46,50:7
47,2:15
47,10:12
47,25:14
47,48:7
47,49:1
47,50:7
47,51:7
48,2:8
48,4:7
48,10:5
48,25:7
48,38:7
48,46:7
48,47:7
48,49:8
48,53:1
48,54:6
48,55:9
48,56:6
49,2:16
49,4:1
49,10:13
49,25:15
49,38:1
49,46:1
49,47:1
49,48:8
49,50:8
49,51:8
49,52:8
49,53:9
49,54:14
49,55:17
49,56:14
49,57:17
49,58:17
50,2:8
50,4:7
50,10:5
50,25:7
50,38:7
50,47:7
50,49:8
50,53:1
50,54:6
50,55:9
50,56:6
50,57:9
50,58:9
51,2:8
51,4:7
51,10:5
51,25:7
51,38:7
51,49:8
52,4:7
52,10:5
52,49:8
52,53:1
53,4:8
53,10:4
53,48:1
53,49:9
53,50:1
53,54:5
54,4:13
54,10:1
54,48:6
54,49:14
54,50:6
54,55:3
55,4:16
55,10:4
55,49:17
55,50:9
55,56:3
56,4:13
56,10:1
56,48:6
56,49:14
56,50:6
56,55:3
56,57:3
57,4:16
57,10:4
57,49:17
57,50:9
58,4:16
58,10:4

<setup times backward>
1,2:10
1,5:3
1,7:9
1,10:7
1,18:3
1,22:4
1,24:4
1,33:9
1,34:3
1,35:2
3,1:3
3,2:13
3,5:6
3,6:3
3,7:12
3,10:10
3,12:1
3,13:1
3,14:6
3,15:1
3,16:3
3,17:10
3,18:6
3,20:10
3,23:3
3,24:7
3,25:12
3,33:12
3,35:5
4,1:5
4,2:15
4,3:2
4,5:8
4,6:5
4,7:14
4,12:3
4,13:3
4,14:8
4,15:3
4,16:5
4,17:12
4,18:8
4,19:2
4,20:12
4,22:9
4,23:5
4,24:9
4,25:14
4,27:5
4,29:14
4,31:6
4,33:14
4,34:8
4,35:7
4,36:3
4,39:7
4,40:15
4,41:3
4,42:3
4,43:3
4,48:7
4,50:7
4,51:7
4,52:7
4,53:8
4,54:13
4,55:16
4,56:13
4,57:16
4,58:16
5,2:7
5,7:6
5,10:4
5,17:4
5,20:4
5,22:1
5,24:1
5,25:6
5,29:6
5,33:6
6,2:10
6,5:3
6,7:9
6,10:7
6,14:3
6,17:7
6,18:3
6,20:7
6,22:4
6,25:9
6,29:9
6,33:9
6,34:3
6,35:2
7,2:1
7,40:1
8,1:8
8,2:18
8,3:5
8,4:3
8,5:11
8,6:8
8,7:17
8,10:15
8,12:6
8,13:6
8,14:11
8,15:6
8,16:8
8,17:15
8,18:11
8,19:5
8,20:15
8,21:3
8,22:12
8,23:8
8,24:12
8,25:17
8,26:3
8,27:8
8,29:17
8,30:3
8,31:9
8,32:2
8,33:17
8,34:11
8,35:10
8,36:6
8,37:2
8,38:3
8,39:10
8,40:18
8,41:6
8,42:6
8,43:6
9,1:8
9,2:18
9,3:5
9,4:3
9,5:11
9,6:8
9,7:17
9,10:15
9,12:6
9,16:8
9,18:11
9,19:5
9,22:12
9,23:8
9,24:12
9,27:8
9,30:3
9,32:2
9,33:17
9,34:11
9,35:10
10,2:3
10,7:2
10,25:2
10,29:2
10,33:2
10,40:3
10,54:1
10,55:4
10,56:1
10,57:4
10,58:4
11,1:8
11,2:18
11,3:5
11,4:3
11,5:11
11,6:8
11,7:17
11,10:15
11,12:6
11,16:8
11,18:11
11,19:5
11,22:12
11,23:8
11,24:12
11,27:8
11,30:3
11,32:2
11,33:17
11,34:11
11,35:10
12,1:2
12,2:12
12,5:5
12,6:2
12,7:11
12,10:9
12,14:5
12,16:2
12,18:5
12,22:6
12,23:2
12,24:6
12,27:2
12,33:11
12,34:5
12,35:4
13,1:2
13,2:12
13,5:5
13,6:2
13,7:11
13,10:9
13,14:5
13,16:2
13,18:5
13,22:6
13,23:2
13,24:6
13,27:2
13,33:11
13,34:5
13,35:4
14,2:7
14,7:6
14,10:4
14,22:1
14,24:1
14,33:6
15,1:2
15,2:12
15,5:5
15,6:2
15,7:11
15,10:9
15,14:5
15,16:2
15,18:5
15,22:6
15,23:2
15,24:6
15,27:2
15,33:11
15,34:5
15,35:4
16,2:10
16,5:3
16,7:9
16,10:7
16,14:3
16,17:7
16,20:7
16,22:4
16,24:4
16,25:9
16,29:9
16,33:9
16,34:3
16,35:2
17,2:3
17,7:2
17,33:2
18,2:7
18,7:6
18,10:4
18,17:4
18,20:4
18,22:1
18,24:1
18,25:6
18,29:6
18,33:6
19,1:3
19,2:13
19,5:6
19,6:3
19,7:12
19,10:10
19,12:1
19,13:1
19,14:6
19,15:1
19,16:3
19,17:10
19,18:6
19,20:10
19,22:7
19,24:7
19,25:12
19,27:3
19,29:12
19,33:12
19,34:6
19,35:5
20,2:3
20,7:2
20,33:2
21,1:5
21,2:15
21,3:2
21,5:8
21,6:5
21,7:14
21,10:12
21,12:3
21,13:3
21,14:8
21,15:3
21,16:5
21,17:12
21,18:8
21,19:2
21,20:12
21,22:9
21,23:5
21,24:9
21,25:14
21,27:5
21,33:14
21,34:8
21,35:7
22,2:6
22,7:5
22,10:3
22,17:3
22,20:3
22,25:5
22,29:5
22,33:5
23,2:10
23,5:3
23,7:9
23,10:7
23,14:3
23,17:7
23,18:3
23,20:7
23,22:4
23,24:4
23,25:9
23,29:9
23,33:9
23,34:3
23,35:2
24,2:6
24,7:5
24,10:3
24,17:3
24,20:3
24,25:5
24,29:5
24,33:5
25,2:1
25,40:1
26,1:5
26,2:15
26,3:2
26,5:8
26,6:5
26,7:14
26,10:12
26,12:3
26,13:3
26,14:8
26,15:3
26,16:5
26,17:12
26,18:8
26,19:2
26,20:12
26,22:9
26,23:5
26,24:9
26,25:14
26,27:5
26,33:14
26,34:8
26,35:7
27,2:10
27,5:3
27,7:9
27,10:7
27,14:3
27,17:7
27,18:3
27,20:7
27,22:4
27,24:4
27,25:9
27,29:9
27,31:1
27,33:9
27,35:2
28,1:8
28,2:18
28,3:5
28,4:3
28,5:11
28,6:8
28,7:17
28,10:15
28,12:6
28,13:6
28,14:11
28,15:6
28,16:8
28,17:15
28,18:11
28,19:5
28,20:15
28,21:3
28,22:12
28,23:8
28,24:12
28,25:17
28,26:3
28,27:8
28,29:17
28,30:3
28,31:9
28,34:11
28,36:6
28,37:2
28,38:3
28,39:10
28,40:18
28,41:6
28,42:6
29,2:1
30,1:5
30,2:15
30,3:2
30,5:8
30,6:5
30,7:14
30,10:12
30,12:3
30,13:3
30,14:8
30,15:3
30,16:5
30,17:12
30,18:8
30,19:2
30,20:12
30,22:9
30,23:5
30,24:9
30,25:14
30,27:5
30,29:14
30,31:6
30,33:14
30,35:7
31,2:9
31,5:2
31,7:8
31,10:6
31,14:2
31,17:6
31,18:2
31,20:6
31,22:3
31,24:3
31,25:8
31,29:8
31,33:8
31,34:2
31,35:1
32,1:6
32,2:16
32,3:3
32,4:1
32,5:9
32,6:6
32,7:15
32,10:13
32,12:4
32,13:4
32,14:9
32,15:4
32,16:6
32,17:13
32,18:9
32,19:3
32,20:13
32,21:1
32,22:10
32,23:6
32,24:10
32,25:15
32,26:1
32,27:6
32,29:15
32,30:1
32,31:7
32,33:15
32,34:9
32,35:8
32,36:4
32,38:1
32,39:8
32,40:16
32,41:4
32,42:4
32,43:4
33,2:1
33,40:1
34,2:7
34,7:6
34,10:4
34,17:4
34,20:4
34,22:1
34,24:1
34,25:6
34,29:6
34,33:6
35,2:8
35,5:1
35,7:7
35,10:5
35,14:1
35,17:5
35,18:1
35,20:5
35,22:2
35,24:2
35,25:7
35,29:7
35,33:7
35,34:1
35,40:8
36,1:2
36,2:12
36,5:5
36,6:2
36,7:11
36,10:9
36,14:5
36,16:2
36,17:9
36,18:5
36,20:9
36,22:6
36,23:2
36,24:6
36,25:11
36,27:2
36,29:11
36,31:3
36,33:11
36,34:5
36,35:4
37,1:6
37,2:16
37,3:3
37,4:1
37,5:9
37,6:6
37,7:15
37,10:13
37,12:4
37,13:4
37,14:9
37,15:4
37,16:6
37,17:13
37,18:9
37,19:3
37,20:13
37,21:1
37,22:10
37,23:6
37,24:10
37,25:15
37,26:1
37,27:6
37,29:15
37,30:1
37,31:7
37,33:15
37,34:9
37,35:8
37,36:4
37,38:1
38,1:5
38,2:15
38,3:2
38,5:8
38,6:5
38,7:14
38,10:12
38,12:3
38,13:3
38,14:8
38,15:3
38,16:5
38,17:12
38,18:8
38,19:2
38,20:12
38,22:9
38,23:5
38,24:9
38,25:14
38,27:5
38,29:14
38,31:6
38,33:14
38,34:8
38,35:7
38,36:3
38,39:7
38,40:15
38,41:3
38,42:3
38,43:3
38,48:7
38,50:7
38,51:7
39,2:8
39,5:1
39,7:7
39,10:5
39,14:1
39,17:5
39,18:1
39,20:5
39,22:2
39,24:2
39,25:7
39,29:7
39,33:7
39,34:1
39,40:8
41,1:2
41,2:12
41,5:5
41,6:2
41,7:11
41,10:9
41,14:5
41,16:2
41,17:9
41,18:5
41,20:9
41,22:6
41,23:2
41,24:6
41,25:11
41,27:2
41,29:11
41,31:3
41,33:11
41,34:5
41,35:4
41,39:4
41,40:12
42,1:2
42,2:12
42,5:5
42,6:2
42,7:11
42,10:9
42,14:5
42,16:2
42,17:9
42,18:5
42,20:9
42,22:6
42,23:2
42,24:6
42,25:11
42,27:2
42,29:11
42,31:3
42,33:11
42,34:5
42,35:4
42,39:4
42,40:12
43,1:2
43,2:12
43,5:5
43,6:2
43,7:11
43,10:9
43,14:5
43,16:2
43,17:9
43,18:5
43,20:9
43,22:6
43,23:2
43,24:6
43,25:11
43,27:2
43,29:11
43,31:3
43,33:11
43,34:5
43,35:4
43,39:4
43,40:12
44,1:8
44,2:18
44,3:5
44,4:3
44,5:11
44,6:8
44,7:17
44,10:15
44,12:6
44,13:6
44,14:11
44,15:6
44,16:8
44,17:15
44,18:11
44,19:5
44,20:15
44,21:3
44,22:12
44,23:8
44,24:12
44,25:17
44,26:3
44,27:8
44,29:17
44,30:3
44,31:9
44,32:2
44,33:17
44,34:11
44,35:10
44,36:6
44,37:2
44,38:3
44,39:10
44,40:18
44,41:6
44,42:6
44,43:6
45,1:6
45,2:16
45,3:3
45,4:1
45,5:9
45,6:6
45,7:15
45,10:13
45,12:4
45,13:4
45,14:9
45,15:4
45,16:6
45,17:13
45,18:9
45,19:3
45,20:13
45,21:1
45,22:10
45,23:6
45,24:10
45,25:15
45,26:1
45,27:6
45,29:15
45,30:1
45,31:7
45,33:15
45,34:9
45,35:8
45,36:4
45,38:1
45,39:8
45,40:16
45,41:4
45,42:4
45,43:4
46,1:5
46,2:15
46,3:2
46,5:8
46,6:5
46,7:14
46,10:12
46,12:3
46,13:3
46,14:8
46,15:3
46,16:5
46,17:12
46,18:8
46,19:2
46,20:12
46,22:9
46,23:5
46,24:9
46,25:14
46,27:5
46,29:14
46,31:6
46,33:14
46,34:8
46,35:7
46,36:3
46,39:7
46,40:15
46,41:3
46,42:3
46,43:3
46,48:7
47,1:5
47,2:15
47,3:2
47,5:8
47,6:5
47,7:14
47,10:12
47,12:3
47,13:3
47,14:8
47,15:3
47,16:5
47,17:12
47,18:8
47,19:2
47,20:12
47,22:9
47,23:5
47,24:9
47,25:14
47,27:5
47,29:14
47,31:6
47,33:14
47,34:8
47,35:7
47,36:3
47,39:7
47,40:15
47,41:3
47,42:3
47,43:3
47,48:7
47,50:7
48,2:8
48,5:1
48,7:7
48,10:5
48,14:1
48,17:5
48,18:1
48,20:5
48,22:2
48,24:2
48,25:7
48,29:7
48,33:7
48,34:1
48,40:8
48,53:1
48,54:6
48,56:6
49,1:6
49,2:16
49,3:3
49,4:1
49,5:9
49,6:6
49,7:15
49,10:13
49,12:4
49,13:4
49,14:9
49,15:4
49,16:6
49,17:13
49,18:9
49,19:3
49,20:13
49,21:1
49,22:10
49,23:6
49,24:10
49,25:15
49,26:1
49,27:6
49,29:15
49,30:1
49,31:7
49,33:15
49,34:9
49,35:8
49,36:4
49,38:1
49,39:8
49,40:16
49,41:4
49,42:4
49,43:4
49,46:1
49,47:1
49,48:8
49,50:8
49,51:8
49,52:8
49,53:9
49,54:14
49,55:17
49,56:14
49,57:17
50,2:8
50,5:1
50,7:7
50,10:5
50,14:1
50,17:5
50,18:1
50,20:5
50,22:2
50,24:2
50,25:7
50,29:7
50,33:7
50,34:1
50,40:8
50,53:1
50,54:6
50,55:9
50,56:6
50,57:9
51,2:8
51,5:1
51,7:7
51,10:5
51,14:1
51,17:5
51,18:1
51,20:5
51,22:2
51,24:2
51,25:7
51,29:7
51,33:7
51,34:1
51,40:8
52,2:8
52,5:1
52,7:7
52,10:5
52,14:1
52,17:5
52,18:1
52,20:5
52,22:2
52,24:2
52,25:7
52,29:7
52,33:7
52,34:1
52,40:8
53,2:7
53,7:6
53,10:4
53,17:4
53,20:4
53,22:1
53,24:1
53,25:6
53,29:6
53,33:6
53,40:7
54,2:2
54,7:1
54,25:1
54,29:1
54,33:1
54,40:2
56,2:2
56,7:1
56,25:1
56,29:1
56,33:1
56,40:2
56,55:3

<end>

<optimal SALBP-1 value>
27


<rand seed>
467321153

